100
32
2
13
19
5
18
26
17
2
28
2
23
17
1
11
28
16
18
20
30
17
17
18
23
20
3
2
25
3
25
4
12
20
3
6
18
5
24
22
3
24
14
6
21
11
11
21
2
6
5
3
20
11
27
22
1
1
3
3
25
9
5
22
26
1
21
2
9
10
21
12
17
7
12
20
25
4
21
8
23
13
16
8
20
22
13
13
1
14
22
9
1
19
7
1
21
11
1
2
13
15